===========================
GAP basis set: ACE_test
pair_style  pace 
pair_coeff * * /scratch-shared/zhanglei1/ace_julia_training_slovers/N4.D14_rrqr/Fe_ace_N4_D14_R5.yace Fe
===========================
============================================ 
Birch-Murnaghan 
E0 = -3460.937170 eV
B0 = 166.578231 GPa
Bp = -10.713838
V0 = 11.473472 angstrom^3
a0 = 2.841679 angstrom
=========================================
Vacancy formation energy is:
2.16985466264305
=========================================
Components of the Elastic Constant Tensor
Elastic Constant C11all = 274.944570783108 GPa
Elastic Constant C12all = 101.044944023565 GPa
Elastic Constant C44all = 97.0203362239757 GPa
Average properties for a cubic crystal
Bulk Modulus = 159.011486422625 GPa
Shear Modulus 1 = 97.0203362947327 GPa
Shear Modulus 2 = 86.9498134231455 GPa
Poisson Ratio = 0.268744047573519
=========================================
(100) surface energy is:
2.25729495020899
=========================================
(110) surface energy is:
2.06011051961506
=========================================
(111) surface energy is:
2.35718100965454
=========================================
(112) surface energy is:
2.5251612143355
